p ds 20 5
1 3
1 5
1 6
1 7
1 9
1 10
1 11
1 13
1 14
1 15
1 16
1 17
1 18
1 19
1 20
2 3
2 4
2 6
2 7
2 8
2 10
2 11
2 12
2 13
2 15
2 16
2 17
2 18
3 4
3 6
3 8
3 11
3 17
4 5
4 6
4 7
4 9
4 12
4 13
4 16
4 18
4 20
5 6
5 9
5 11
5 12
5 13
5 14
5 15
5 16
5 18
5 19
6 7
6 11
6 12
6 13
6 18
6 19
6 20
7 8
7 10
7 13
7 14
7 16
7 17
7 19
7 20
8 11
8 13
8 14
8 17
8 18
8 19
9 10
9 12
9 14
9 15
9 17
9 18
9 19
9 20
10 12
10 16
10 18
11 12
11 16
11 18
11 19
11 20
12 13
12 14
12 15
12 17
12 18
12 19
13 15
13 16
13 18
14 15
14 19
15 17
15 19
16 18
16 20
17 19
17 20
18 20
19 20
